5 5
8 4 5 4 2 14 1 10 3 8 2 4 16 1 4 4 3 6 4 16 2 12 1 17 5 1 18 3 3 5 4 4 9 2 20 3 1 9 2 6 4 20 4 1 15 3 19 5 13 2 11 2 3 4 2 13 2 5 19 3 12
7 2 1 14 2 10 2 4 15 1 18 1 3 17 4 5 15 1 18 3 15 2 12 5 2 10 5 15 4 3 3 3 1 14 1 3 8 3 4 5 1 3 3 15
6 5 3 8 2 12 5 15 1 19 4 16 2 5 14 4 7 3 2 7 5 7 1 9 4 3 12 4 10 5 10 2 3 4 1 8 3 19 2 18 5 8 5 5 14 2 4 4 11 1 8 3 20
6 3 2 6 5 5 3 14 4 2 14 4 18 5 17 3 17 5 5 8 3 18 4 11 1 17 2 16 2 3 18 1 16 4 5 15 1 6 2 5 4 17 1 4 15
4 2 4 6 1 13 3 3 5 5 7 2 10 2 3 2 2 13 3 5 13 2 12 4 7